\* Problem: Unknown *\

Maximize
 obj: + xp_0_0 + xp_0_1 + xp_0_2 + xp_0_3 + xp_0_4 + xp_0_5 + xp_0_6
 + xp_1_0 + xp_1_1 + xp_1_2 + xp_2_0 + xp_2_1 + xp_2_2 + xp_2_3 + xp_2_4
 + xp_3_0 + xp_3_1 + xp_3_2 + xp_3_3 + xp_4_0 + xp_4_1 + xp_5_0 + xp_5_1
 + xp_6_0 + xp_6_1 + xp_6_2 + xp_7_0 + xp_7_1 + xp_8_0 + xp_8_1 + xp_9_0
 + xp_10_0 + xp_10_1 + xp_11_0 + xp_11_1 + xp_11_2 + xp_11_3 + xp_11_4
 + xp_12_0 + xp_12_1 + xp_13_0 + xp_13_1 + xp_14_0 + xp_14_1 + xp_14_2
 + xp_15_0 + xp_16_0 + xp_16_1 + xp_17_0 + xp_17_1 + xp_17_2 + xp_17_3
 + xp_17_4 + xp_17_5 + xp_17_6 + xp_18_0 + xp_18_1 + xp_18_2 + xp_18_3
 + xp_19_0 + xp_19_1 + xp_19_2 + xp_19_3 + xp_19_4 + xp_19_5 + xp_19_6
 + xp_20_0 + xp_20_1 + xp_20_2 + xp_20_3 + xp_20_4 + xp_21_0 + xp_21_1
 + xp_21_2 + xp_21_3 + xp_21_4 + xp_21_5 + xp_22_0 + xp_22_1 + xp_22_2
 + xp_22_3 + xp_22_4 + xp_22_5 + xp_22_6 + xp_23_0 + xp_23_1 + xp_23_2
 + xp_23_3 + xp_23_4 + xp_23_5 + xp_23_6

Subject To
 r_1: 0 xp_0_0 <= 25.6427184466019
 r_2: + xp_23_5 + xp_22_3 + xp_18_2 + xp_12_1 + xp_6_1 + xp_2_3
 <= 25.4697642637513
 r_3: + xp_23_2 + xp_22_6 + xp_21_2 + xp_18_3 + xp_17_3
 <= 26.0949464012251
 r_4: + xp_17_1 + xp_15_0 <= 26.2815479528884
 r_5: + xp_18_0 <= 25.3650893136948
 r_6: + xp_18_1 <= 26.0136785539814
 r_7: + xp_20_4 <= 25.6427184466019
 r_8: + xp_22_2 + xp_11_2 + xp_5_1 + xp_3_3 + xp_3_2 + xp_2_2
 <= 25.4697642637513
 r_9: + xp_23_3 + xp_11_1 + xp_3_1 <= 26.0949464012251
 r_10: + xp_17_4 + xp_11_4 + xp_3_0 <= 26.2815479528884
 r_11: + xp_18_1 + xp_11_3 <= 25.3650893136948
 r_12: + xp_11_0 <= 26.0136785539814
 r_13: 0 xp_0_0 <= 26.9620253164557
 r_14: + xp_21_3 + xp_19_1 + xp_14_0 + xp_4_1 + xp_0_5 + xp_0_2
 <= 25.4697642637513
 r_15: + xp_21_0 + xp_19_4 <= 26.0949464012251
 r_16: + xp_22_1 + xp_21_5 + xp_19_5 + xp_14_2 + xp_0_4 + xp_0_3
 + xp_0_1 <= 26.1838588989845
 r_17: + xp_0_0 <= 25.3650893136948
 r_18: + xp_21_2 + xp_4_0 <= 25.6427184466019
 r_19: + xp_19_0 <= 25.6427184466019
 r_20: + xp_21_4 + xp_21_1 + xp_19_6 + xp_19_3 + xp_19_2 + xp_14_1
 + xp_0_6 <= 26.9620253164557
 r_21: + xp_20_1 <= 25.4697642637513
 r_22: + xp_21_4 + xp_21_3 + xp_20_2 + xp_7_1 <= 26.0949464012251
 r_23: + xp_22_5 + xp_22_3 + xp_22_2 + xp_3_3 <= 26.1838588989845
 r_24: + xp_23_5 + xp_17_6 + xp_6_1 + xp_3_2 + xp_0_5
 <= 25.8070099524016
 r_25: 0 xp_0_0 <= 26.9620253164557
 r_26: + xp_18_2 + xp_0_6 + xp_0_2 <= 25.3650893136948
 r_27: + xp_11_2 + xp_4_1 <= 25.4697642637513
 r_28: + xp_19_3 + xp_19_1 + xp_10_1 <= 25.4697642637513
 r_29: + xp_20_3 + xp_20_2 <= 26.0949464012251
 r_30: + xp_2_0 <= 26.0949464012251
 r_31: + xp_23_3 + xp_23_2 + xp_22_6 + xp_18_3 + xp_17_3 + xp_3_1
 + xp_2_4 <= 25.8070099524016
 r_32: + xp_2_1 <= 26.9620253164557
 r_33: + xp_11_1 + xp_2_3 <= 26.0949464012251
 r_34: + xp_19_6 + xp_19_4 + xp_2_2 <= 26.0949464012251
 r_35: 0 xp_0_0 <= 26.1838588989845
 r_36: + xp_14_2 + xp_9_0 <= 26.1838588989845
 r_37: + xp_21_5 + xp_13_1 + xp_8_1 + xp_6_2 + xp_0_3
 <= 25.8070099524016
 r_38: + xp_23_4 + xp_1_1 <= 27.6367006487488
 r_39: + xp_19_5 + xp_17_2 + xp_3_3 + xp_0_4 <= 26.2815479528884
 r_40: + xp_0_1 <= 25.3650893136948
 r_41: + xp_12_0 + xp_2_4 <= 25.8070099524016
 r_42: + xp_21_5 <= 25.8070099524016
 r_43: + xp_22_6 + xp_16_0 <= 25.8070099524016
 r_44: + xp_23_6 + xp_23_5 + xp_23_3 + xp_23_2 + xp_23_1 + xp_16_1
 + xp_1_2 <= 27.6367006487488
 r_45: + xp_17_6 + xp_17_5 + xp_17_3 + xp_12_1 + xp_3_2 + xp_3_1
 <= 26.2815479528884
 r_46: + xp_18_3 + xp_0_5 + xp_0_3 <= 25.3650893136948
 r_47: + xp_22_4 + xp_16_1 + xp_13_1 <= 27.6367006487488
 r_48: + xp_13_0 <= 27.6367006487488
 r_49: 0 xp_0_0 <= 26.2815479528884
 r_50: 0 xp_0_0 <= 25.3650893136948
 r_51: + xp_8_1 + xp_1_1 <= 26.2815479528884
 r_52: + xp_23_6 + xp_8_0 + xp_1_2 <= 26.2815479528884
 r_53: + xp_1_0 <= 26.2815479528884
 r_54: + xp_0_4 <= 25.3650893136948
 r_55: + xp_12_1 + xp_11_4 <= 26.2815479528884
 r_56: + xp_19_5 <= 26.2815479528884
 r_57: + xp_22_1 <= 25.3650893136948
 r_58: + xp_22_5 + xp_17_6 + xp_5_0 <= 25.3650893136948
 r_59: + xp_23_4 + xp_22_0 + xp_17_2 + xp_6_2 <= 25.3650893136948
 r_60: + xp_23_1 + xp_17_5 + xp_6_0 <= 25.3650893136948
 r_61: + xp_23_0 + xp_22_4 <= 25.3650893136948
 r_62: + xp_23_6 + xp_17_0 <= 25.3650893136948
 r_63: + xp_23_5 + xp_23_2 + xp_22_6 + xp_22_3 + xp_17_3 + xp_17_1
 + xp_11_3 + xp_6_1 <= 25.3650893136948
 r_64: + xp_23_3 + xp_22_2 + xp_17_4 + xp_5_1 <= 25.3650893136948
 r_65: + xp_21_4 + xp_20_2 + xp_20_1 + xp_19_3 + xp_14_1 + xp_10_1
 + xp_7_1 + xp_2_1 + xp_0_6 <= 26.9620253164557
 r_66: + xp_21_1 + xp_20_3 + xp_19_6 + xp_7_0 <= 26.9620253164557
 r_67: + xp_20_4 + xp_19_2 + xp_10_0 <= 26.9620253164557
 r_68: + xp_20_0 <= 26.9620253164557

Bounds
 0 <= xp_0_0 <= 27.6923076923077
 0 <= xp_0_1 <= 11.5384615384615
 0 <= xp_0_2 <= 6.92307692307692
 0 <= xp_0_3 <= 4.61538461538461
 0 <= xp_0_4 <= 4.61538461538461
 0 <= xp_0_5 <= 2.30769230769231
 0 <= xp_0_6 <= 2.30769230769231
 0 <= xp_1_0 <= 20.010375
 0 <= xp_1_1 <= 13.7068326923077
 0 <= xp_1_2 <= 0.309767307692308
 0 <= xp_2_0 <= 22.1354538461538
 0 <= xp_2_1 <= 2.58093692307692
 0 <= xp_2_2 <= 0.819733846153846
 0 <= xp_2_3 <= 2.85418153846154
 0 <= xp_2_4 <= 5.16187384615384
 0 <= xp_3_0 <= 20.7692307692308
 0 <= xp_3_1 <= 2.30769230769231
 0 <= xp_3_2 <= 4.61538461538461
 0 <= xp_3_3 <= 2.30769230769231
 0 <= xp_4_0 <= 23.3745230769231
 0 <= xp_4_1 <= 1.94787692307692
 0 <= xp_5_0 <= 21.4266461538461
 0 <= xp_5_1 <= 3.89575384615384
 0 <= xp_6_0 <= 19.2839815384615
 0 <= xp_6_1 <= 1.75308923076923
 0 <= xp_6_2 <= 1.75308923076923
 0 <= xp_7_0 <= 20.1605261538462
 0 <= xp_7_1 <= 1.68004384615385
 0 <= xp_8_0 <= 16.6056507692308
 0 <= xp_8_1 <= 3.01920923076923
 0 <= xp_9_0 <= 18.200475
 0 <= xp_10_0 <= 15.4004019230769
 0 <= xp_10_1 <= 2.80007307692308
 0 <= xp_11_0 <= 25.0166861538461
 0 <= xp_11_1 <= 17.3577507692308
 0 <= xp_11_2 <= 6.37118307692307
 0 <= xp_11_3 <= 6.55514769230769
 0 <= xp_11_4 <= 2.30769230769231
 0 <= xp_12_0 <= 15.7778030769231
 0 <= xp_12_1 <= 1.31481692307692
 0 <= xp_13_0 <= 14.0612365384615
 0 <= xp_13_1 <= 2.55658846153846
 0 <= xp_14_0 <= 9.73938461538461
 0 <= xp_14_1 <= 4.86969230769231
 0 <= xp_14_2 <= 1.21742307692308
 0 <= xp_15_0 <= 15.668235
 0 <= xp_16_0 <= 13.8786230769231
 0 <= xp_16_1 <= 1.15655192307692
 0 <= xp_17_0 <= 25.2304107692308
 0 <= xp_17_1 <= 3.38443615384615
 0 <= xp_17_2 <= 5.38371923076923
 0 <= xp_17_3 <= 1.07674384615385
 0 <= xp_17_4 <= 3.38443615384615
 0 <= xp_17_5 <= 2.15348769230769
 0 <= xp_17_6 <= 3.38443615384615
 0 <= xp_18_0 <= 20.3607253846154
 0 <= xp_18_1 <= 12.9533815384615
 0 <= xp_18_2 <= 6.47669076923077
 0 <= xp_18_3 <= 2.30769230769231
 0 <= xp_19_0 <= 28.0670065384615
 0 <= xp_19_1 <= 0.894130384615384
 0 <= xp_19_2 <= 4.99008346153846
 0 <= xp_19_3 <= 0.894130384615384
 0 <= xp_19_4 <= 4.09595307692308
 0 <= xp_19_5 <= 1.78826076923077
 0 <= xp_19_6 <= 0.894130384615384
 0 <= xp_20_0 <= 27.0511338461538
 0 <= xp_20_1 <= 5.64072923076923
 0 <= xp_20_2 <= 0.83325923076923
 0 <= xp_20_3 <= 3.33303692307692
 0 <= xp_20_4 <= 3.97421076923077
 0 <= xp_21_0 <= 25.1749511538461
 0 <= xp_21_1 <= 0.699342692307692
 0 <= xp_21_2 <= 3.70637769230769
 0 <= xp_21_3 <= 4.40572038461538
 0 <= xp_21_4 <= 3.007035
 0 <= xp_21_5 <= 2.09802807692308
 0 <= xp_22_0 <= 16.1565553846154
 0 <= xp_22_1 <= 1.15520076923077
 0 <= xp_22_2 <= 6.34818576923077
 0 <= xp_22_3 <= 5.77058538461538
 0 <= xp_22_4 <= 5.192985
 0 <= xp_22_5 <= 0.577600384615384
 0 <= xp_22_6 <= 2.30769230769231
 0 <= xp_23_0 <= 23.0796323076923
 0 <= xp_23_1 <= 3.4656023076923
 0 <= xp_23_2 <= 2.88529269230769
 0 <= xp_23_3 <= 4.61538461538461
 0 <= xp_23_4 <= 2.30769230769231
 0 <= xp_23_5 <= 0.577600384615384
 0 <= xp_23_6 <= 0.577600384615384

End
